WARNING: for repeatability, setting FPU to use double precision
============================[ Problem Statistics ]=============================
|                                                                             |
|  Number of variables:           100                                         |
|  Number of clauses:             449                                         |
|  Parse time:                   0.00 s                                       |
|  Eliminated clauses:           0.00 Mb                                      |
|  Simplification time:          0.00 s                                       |
|                                                                             |
============================[ Search Statistics ]==============================
| Conflicts |          ORIGINAL         |          LEARNT          | Progress |
|           |    Vars  Clauses Literals |    Limit  Clauses Lit/Cl |          |
===============================================================================
|       100 |      98      447     1352 |      163      100      7 |  0.011 % |
|       250 |      96      435     1316 |      180      120      6 |  2.000 % |
===============================================================================
restarts              : 3
conflicts             : 258            (37952 /sec)
decisions             : 316            (0.00 % random) (46484 /sec)
propagations          : 5771           (848926 /sec)
conflict literals     : 1499           (20.39 % deleted)
Memory used           : 13.00 MB
CPU time              : 0.006798 s

SATISFIABLE
